Normalized Data/p01_3070_tsplib0_normalized_split0.vrp
NAME:p01_3070_tsplib0_NORMALIZED_split
BEST_KNOWN: 0
COMMENT: 0
DIMENSION: 246
CAPACITY: 100
EDGE_WEIGHT_FORMAT: FUNCTION
EDGE_WEIGHT_TYPE: EXACT_2D
NODE_COORD_SECTION
1 0.00000 0.00000
2 7 12
3 7 12
4 7 12
5 7 12
6 7 12
7 7 12
8 19 9
9 19 9
10 19 9
11 22 24
12 22 24
13 22 24
14 22 24
15 22 24
16 22 24
17 -10 -14
18 -10 -14
19 -10 -14
20 -10 -14
21 10 -10
22 10 -10
23 10 -10
24 10 -10
25 10 -10
26 -9 7
27 -9 7
28 -9 7
29 -9 7
30 -9 7
31 -9 7
32 -9 7
33 -13 23
34 -13 23
35 -13 23
36 -13 23
37 -13 23
38 -13 23
39 -13 23
40 1 22
41 1 22
42 1 22
43 1 22
44 1 22
45 1 22
46 22 -7
47 22 -7
48 22 -7
49 22 -7
50 22 -7
51 22 -7
52 21 -19
53 21 -19
54 21 -19
55 12 1
56 12 1
57 12 1
58 12 1
59 1 -8
60 1 -8
61 1 -8
62 -25 -15
63 -25 -15
64 -25 -15
65 -25 -15
66 -25 -15
67 -25 -15
68 -18 2
69 -18 2
70 -18 2
71 6 -24
72 6 -24
73 6 -24
74 6 -24
75 6 -24
76 6 -24
77 22 1
78 22 1
79 22 1
80 -3 -17
81 -3 -17
82 -3 -17
83 -3 -17
84 -3 -17
85 -13 -7
86 -13 -7
87 -13 -7
88 -17 -27
89 -17 -27
90 -17 -27
91 -17 -27
92 -17 -27
93 -17 -27
94 27 18
95 27 18
96 27 18
97 27 18
98 32 2
99 32 2
100 32 2
101 32 2
102 32 2
103 12 17
104 12 17
105 12 17
106 12 17
107 -14 17
108 -14 17
109 -14 17
110 -14 17
111 -22 12
112 -22 12
113 -22 12
114 -22 12
115 -22 12
116 -22 12
117 -23 -2
118 -23 -2
119 -23 -2
120 -23 -2
121 -3 28
122 -3 28
123 -3 28
124 -3 28
125 -3 28
126 -3 28
127 -3 28
128 0 8
129 0 8
130 0 8
131 13 27
132 13 27
133 13 27
134 28 8
135 28 8
136 28 8
137 28 -13
138 28 -13
139 28 -13
140 28 -13
141 28 -13
142 7 29
143 7 29
144 7 29
145 7 29
146 7 29
147 7 29
148 8 6
149 8 6
150 8 6
151 8 6
152 16 -30
153 16 -30
154 16 -30
155 16 -30
156 16 -30
157 16 -30
158 31 -7
159 31 -7
160 31 -7
161 31 -7
162 31 -7
163 31 -7
164 32 23
165 32 23
166 32 23
167 32 23
168 32 23
169 32 23
170 33 29
171 33 29
172 33 29
173 33 29
174 33 29
175 33 29
176 2 -18
177 2 -18
178 2 -18
179 15 -5
180 15 -5
181 15 -5
182 15 -5
183 15 -5
184 15 -5
185 29 -25
186 29 -25
187 29 -25
188 29 -25
189 29 -25
190 29 -25
191 29 -25
192 -25 -34
193 -25 -34
194 -25 -34
195 -25 -34
196 -25 -34
197 -25 -34
198 -20 -23
199 -20 -23
200 -20 -23
201 -20 -23
202 -20 -23
203 -9 -30
204 -9 -30
205 -9 -30
206 -9 -30
207 -25 24
208 -25 24
209 -25 24
210 -25 24
211 0 -25
212 0 -25
213 0 -25
214 0 -25
215 0 -25
216 9 -30
217 9 -30
218 9 -30
219 9 -30
220 2 -1
221 2 -1
222 2 -1
223 -5 -8
224 -5 -8
225 -5 -8
226 -5 -8
227 -5 -8
228 -5 -8
229 -5 -8
230 -5 15
231 -5 15
232 -5 15
233 -5 15
234 18 -12
235 18 -12
236 18 -12
237 18 -12
238 18 -12
239 18 -12
240 26 -3
241 26 -3
242 26 -3
243 26 -3
244 26 -3
245 26 -3
246 26 -3
DEMAND_SECTION
1 0
2 20
3 20
4 20
5 1
6 1
7 1
8 20
9 20
10 5
11 20
12 10
13 5
14 1
15 1
16 1
17 20
18 20
19 10
20 1
21 20
22 20
23 20
24 5
25 1
26 20
27 20
28 20
29 1
30 1
31 1
32 1
33 20
34 20
35 5
36 1
37 1
38 1
39 1
40 20
41 10
42 1
43 1
44 1
45 1
46 20
47 10
48 5
49 1
50 1
51 1
52 20
53 10
54 1
55 20
56 20
57 20
58 1
59 20
60 20
61 5
62 20
63 20
64 5
65 1
66 1
67 1
68 20
69 20
70 10
71 20
72 20
73 10
74 5
75 1
76 1
77 20
78 20
79 1
80 20
81 10
82 1
83 1
84 1
85 20
86 20
87 10
88 20
89 20
90 20
91 1
92 1
93 1
94 20
95 20
96 10
97 1
98 20
99 10
100 1
101 1
102 1
103 20
104 20
105 10
106 5
107 20
108 20
109 10
110 5
111 20
112 20
113 10
114 1
115 1
116 1
117 20
118 20
119 20
120 1
121 20
122 20
123 10
124 5
125 1
126 1
127 1
128 20
129 10
130 1
131 20
132 20
133 20
134 20
135 10
136 5
137 20
138 10
139 1
140 1
141 1
142 20
143 20
144 20
145 1
146 1
147 1
148 20
149 20
150 20
151 1
152 20
153 20
154 20
155 1
156 1
157 1
158 20
159 10
160 5
161 1
162 1
163 1
164 20
165 20
166 20
167 1
168 1
169 1
170 20
171 20
172 5
173 1
174 1
175 1
176 20
177 20
178 20
179 20
180 20
181 5
182 1
183 1
184 1
185 20
186 20
187 5
188 1
189 1
190 1
191 1
192 20
193 20
194 20
195 1
196 1
197 1
198 20
199 10
200 5
201 1
202 1
203 20
204 10
205 1
206 1
207 20
208 20
209 10
210 5
211 20
212 20
213 10
214 5
215 1
216 20
217 20
218 20
219 5
220 20
221 20
222 1
223 20
224 20
225 5
226 1
227 1
228 1
229 1
230 20
231 20
232 5
233 1
234 20
235 20
236 20
237 1
238 1
239 1
240 20
241 20
242 10
243 1
244 1
245 1
246 1
DEPOT_SECTION
1
-1
EOF