Normalized Data/p01_3070_tsplib0_normalized_split0.sol
245 -3 8 7 9 134 133 135 -6 4 2 1 5 103 105 102 104 -12 10 13 11 14 164 167 166 168 165 163 -15 170 172 171 173 169 174 93 96 95 94 -17 16 18 19 224 223 225 227 226 228 222 -21 22 20 179 178 -24 23 217 218 216 215 71 75 60 -27 208 206 207 209 109 106 -28 25 231 230 229 232 128 127 129 -29 31 26 30 115 112 113 110 111 114 67 -39 36 37 35 32 34 33 38 107 108 -41 43 44 40 42 141 144 146 130 132 131 -45 49 46 48 234 233 235 238 237 236 221 -50 47 140 137 139 138 187 189 185 186 190 188 184 53 52 51 -56 55 54 220 219 -57 99 98 101 97 100 158 160 159 162 161 157 136 182 183 180 181 -58 59 175 176 177 -64 62 66 63 61 65 86 85 84 -69 68 118 119 116 117 -74 73 70 72 153 152 154 155 151 156 -78 76 77 240 243 239 245 241 244 242 -82 80 81 83 79 213 212 214 211 210 -92 91 90 87 89 88 204 205 202 203 -121 122 125 124 120 126 123 145 143 142 -147 148 150 149 -192 196 191 194 193 195 197 201 199 198 200 0 





OBJ=
1505.946
BEST_KNOWN=
0.000